local_stuff/sygus_stuff/sygus_inv_oai/repo/z3/108.out
STDOUT:
sat
(
  (define-fun inv ((x!0 Int) (x!1 Int) (x!2 Int) (x!3 Int) (x!4 Int)) Bool
    (<= (+ x!0 (* (- 1) x!2)) 0))
)


STDERR:
